(declare-const c_0 Real)
(declare-const c_1 Real)
(declare-const c_2 Real)
(declare-const c_3 Real)
(declare-const c_4 Real)
(declare-const c_5 Real)
(declare-const c_6 Real)
(declare-const c_7 Real)
(declare-const c_8 Real)
(declare-const c_9 Real)
(declare-const c_10 Real)
(declare-const c_11 Real)
(declare-const c_12 Real)
(declare-const c_13 Real)
(declare-const c_14 Real)
(declare-const c_15 Real)
(declare-const c_16 Real)
(declare-const c_17 Real)
(declare-const c_18 Real)
(declare-const c_19 Real)
(declare-const c_20 Real)
(declare-const c_21 Real)
(declare-const c_22 Real)
(declare-const c_23 Real)
(declare-const c_24 Real)
(declare-const c_25 Real)
(declare-const c_26 Real)
(declare-const c_27 Real)
(declare-const c_28 Real)
(declare-const c_29 Real)
(declare-const s_0 Real)
(declare-const s_1 Real)
(declare-const s_2 Real)
(declare-const s_3 Real)
(declare-const s_4 Real)
(declare-const s_5 Real)
(declare-const s_6 Real)
(declare-const s_7 Real)
(declare-const s_8 Real)
(declare-const s_9 Real)
(declare-const s_10 Real)
(declare-const s_11 Real)
(declare-const s_12 Real)
(declare-const s_13 Real)
(declare-const s_14 Real)
(declare-const s_15 Real)
(declare-const s_16 Real)
(declare-const s_17 Real)
(declare-const s_18 Real)
(declare-const s_19 Real)
(declare-const s_20 Real)
(declare-const s_21 Real)
(declare-const s_22 Real)
(declare-const s_23 Real)
(declare-const s_24 Real)
(declare-const s_25 Real)
(declare-const s_26 Real)
(declare-const s_27 Real)
(declare-const s_28 Real)
(declare-const s_29 Real)
(assert (forall ((x Real) (i Real) (y Real) (z Real) ) (=> (and (>= (+ (* 1024 1) (* 1 x ) ) 0) (>= (+ (* 1023 1) (* (- 1) x ) ) 0) (>= (+ (* 1024 1) (* 1 i ) ) 0) (>= (+ (* 1023 1) (* (- 1) i ) ) 0) (>= (+ (* 1024 1) (* 1 y ) ) 0) (>= (+ (* 1023 1) (* (- 1) y ) ) 0) (>= (+ (* 1024 1) (* 1 z ) ) 0) (>= (+ (* 1023 1) (* (- 1) z ) ) 0) ) (>= (+ (* 1 i s_1 ) (* 1 i s_2 x ) (* 1 i s_3 y ) (* 1 i s_4 z ) (* 1 i i s_5 ) (* 1 s_0 ) (* 1 s_10 y ) (* 1 s_11 y z ) (* 1 s_12 y y ) (* 1 s_13 z ) (* 1 s_14 z z ) (* 1 s_6 x ) (* 1 s_7 x y ) (* 1 s_8 x z ) (* 1 s_9 x x ) ) 0) )))
(assert (forall ((x Real) (i Real) (y Real) (z Real) ) (=> (and (>= (+ (* 1024 1) (* 1 x ) ) 0) (>= (+ (* 1023 1) (* (- 1) x ) ) 0) (>= (+ (* 1024 1) (* 1 i ) ) 0) (>= (+ (* 1023 1) (* (- 1) i ) ) 0) (>= (+ (* 1024 1) (* 1 y ) ) 0) (>= (+ (* 1023 1) (* (- 1) y ) ) 0) (>= (+ (* 1024 1) (* 1 z ) ) 0) (>= (+ (* 1023 1) (* (- 1) z ) ) 0) ) (>= (+ (* 1 c_0 ) (* 1 c_1 i ) (* 1 c_10 y ) (* 1 c_11 y z ) (* 1 c_12 y y ) (* 1 c_13 z ) (* 1 c_14 z z ) (* 1 c_2 i x ) (* 1 c_3 i y ) (* 1 c_4 i z ) (* 1 c_5 i i ) (* 1 c_6 x ) (* 1 c_7 x y ) (* 1 c_8 x z ) (* 1 c_9 x x ) ) 0) )))
(assert (forall ((x Real) (i Real) (y Real) (z Real) ) (=> (and (>= (+ (* (- 1) 1) (* (- 1) x ) (* 1 z ) ) 0) (>= (+ (* (- 1) 1) (* (- 1) x ) (* 1 y ) ) 0) (>= (+ (* 1023 1) (* (- 1) z ) ) 0) (>= (+ (* 1023 1) (* (- 1) y ) ) 0) (>= (+ (* 1023 1) (* (- 1) x ) ) 0) (>= (+ (* 1024 1) (* 1 x ) ) 0) (>= (+ (* 1024 1) (* 1 i ) ) 0) (>= (+ (* 1024 1) (* 1 z ) ) 0) (>= (+ (* 1024 1) (* 1 y ) ) 0) (>= (+ (* 1 i s_1 ) (* 1 i s_2 x ) (* 1 i s_3 y ) (* 1 i s_4 z ) (* 1 i i s_5 ) (* 1 s_0 ) (* 1 s_10 y ) (* 1 s_11 y z ) (* 1 s_12 y y ) (* 1 s_13 z ) (* 1 s_14 z z ) (* 1 s_6 x ) (* 1 s_7 x y ) (* 1 s_8 x z ) (* 1 s_9 x x ) ) 0) ) (>= (+ (* 1 i s_1 ) (* 1 i s_2 ) (* 1 i s_2 x ) (* 1 i s_3 y ) (* 1 i s_4 z ) (* 2 i s_5 ) (* 1 i i s_5 ) (* 1 s_0 ) (* 1 s_1 ) (* 1 s_10 y ) (* 1 s_11 y z ) (* 1 s_12 y y ) (* 1 s_13 z ) (* 1 s_14 z z ) (* 1 s_2 ) (* 1 s_2 x ) (* 1 s_3 y ) (* 1 s_4 z ) (* 1 s_5 ) (* 1 s_6 ) (* 1 s_6 x ) (* 1 s_7 x y ) (* 1 s_7 y ) (* 1 s_8 x z ) (* 1 s_8 z ) (* 1 s_9 ) (* 2 s_9 x ) (* 1 s_9 x x ) ) 0) )))
(assert (forall ((x Real) (i Real) (y Real) (z Real) ) (=> (and (>= (+ (* (- 1) 1) (* (- 1) x ) (* 1 z ) ) 0) (>= (+ (* (- 1) 1) (* (- 1) x ) (* 1 y ) ) 0) (>= (+ (* 1023 1) (* (- 1) z ) ) 0) (>= (+ (* 1023 1) (* (- 1) y ) ) 0) (>= (+ (* 1023 1) (* (- 1) x ) ) 0) (>= (+ (* 1024 1) (* 1 x ) ) 0) (>= (+ (* 1024 1) (* 1 i ) ) 0) (>= (+ (* 1024 1) (* 1 z ) ) 0) (>= (+ (* 1024 1) (* 1 y ) ) 0) (>= (+ (* 1 i s_1 ) (* 1 i s_2 x ) (* 1 i s_3 y ) (* 1 i s_4 z ) (* 1 i i s_5 ) (* 1 s_0 ) (* 1 s_10 y ) (* 1 s_11 y z ) (* 1 s_12 y y ) (* 1 s_13 z ) (* 1 s_14 z z ) (* 1 s_6 x ) (* 1 s_7 x y ) (* 1 s_8 x z ) (* 1 s_9 x x ) ) 0) ) (>= (+ (* 1 c_0 ) (* 1 c_1 ) (* 1 c_1 i ) (* 1 c_10 y ) (* 1 c_11 y z ) (* 1 c_12 y y ) (* 1 c_13 z ) (* 1 c_14 z z ) (* 1 c_2 ) (* 1 c_2 i ) (* 1 c_2 i x ) (* 1 c_2 x ) (* 1 c_3 i y ) (* 1 c_3 y ) (* 1 c_4 i z ) (* 1 c_4 z ) (* 1 c_5 ) (* 2 c_5 i ) (* 1 c_5 i i ) (* 1 c_6 ) (* 1 c_6 x ) (* 1 c_7 x y ) (* 1 c_7 y ) (* 1 c_8 x z ) (* 1 c_8 z ) (* 1 c_9 ) (* 2 c_9 x ) (* 1 c_9 x x ) ) 0) )))
(assert (forall ((x Real) (i Real) (y Real) (z Real) ) (=> (and (>= (+ (* (- 1) 1) (* (- 1) x ) (* 1 z ) ) 0) (>= (+ (* (- 1) 1) (* (- 1) x ) (* 1 y ) ) 0) (>= (+ (* 1023 1) (* (- 1) z ) ) 0) (>= (+ (* 1023 1) (* (- 1) y ) ) 0) (>= (+ (* 1023 1) (* (- 1) x ) ) 0) (>= (+ (* 1024 1) (* 1 x ) ) 0) (>= (+ (* 1024 1) (* 1 i ) ) 0) (>= (+ (* 1024 1) (* 1 z ) ) 0) (>= (+ (* 1024 1) (* 1 y ) ) 0) (>= (+ (* 1 i s_1 ) (* 1 i s_2 x ) (* 1 i s_3 y ) (* 1 i s_4 z ) (* 1 i i s_5 ) (* 1 s_0 ) (* 1 s_10 y ) (* 1 s_11 y z ) (* 1 s_12 y y ) (* 1 s_13 z ) (* 1 s_14 z z ) (* 1 s_6 x ) (* 1 s_7 x y ) (* 1 s_8 x z ) (* 1 s_9 x x ) ) 0) ) (>= (+ (* (- 1) 1) (* (- 1) c_1 ) (* (- 1) c_2 ) (* (- 1) c_2 i ) (* (- 1) c_2 x ) (* (- 1) c_3 y ) (* (- 1) c_4 z ) (* (- 1) c_5 ) (* (- 2) c_5 i ) (* (- 1) c_6 ) (* (- 1) c_7 y ) (* (- 1) c_8 z ) (* (- 1) c_9 ) (* (- 2) c_9 x ) ) 0) )))
(assert (forall ((x Real) (i Real) (y Real) (z Real) ) (=> (and (>= (+ (* 1 x ) (* (- 1) z ) ) 0) (>= (+ (* (- 1) 1) (* (- 1) x ) (* 1 y ) ) 0) (>= (+ (* 1023 1) (* (- 1) z ) ) 0) (>= (+ (* 1023 1) (* (- 1) y ) ) 0) (>= (+ (* 1023 1) (* (- 1) x ) ) 0) (>= (+ (* 1024 1) (* 1 x ) ) 0) (>= (+ (* 1024 1) (* 1 i ) ) 0) (>= (+ (* 1024 1) (* 1 z ) ) 0) (>= (+ (* 1024 1) (* 1 y ) ) 0) (>= (+ (* 1 i s_1 ) (* 1 i s_2 x ) (* 1 i s_3 y ) (* 1 i s_4 z ) (* 1 i i s_5 ) (* 1 s_0 ) (* 1 s_10 y ) (* 1 s_11 y z ) (* 1 s_12 y y ) (* 1 s_13 z ) (* 1 s_14 z z ) (* 1 s_6 x ) (* 1 s_7 x y ) (* 1 s_8 x z ) (* 1 s_9 x x ) ) 0) ) (>= (+ (* 1 i s_1 ) (* 1 i s_2 x ) (* 1 i s_3 y ) (* 1 i s_4 ) (* 1 i s_4 z ) (* 2 i s_5 ) (* 1 i i s_5 ) (* 1 s_0 ) (* 1 s_1 ) (* 1 s_10 y ) (* 1 s_11 y ) (* 1 s_11 y z ) (* 1 s_12 y y ) (* 1 s_13 ) (* 1 s_13 z ) (* 1 s_14 ) (* 2 s_14 z ) (* 1 s_14 z z ) (* 1 s_2 x ) (* 1 s_3 y ) (* 1 s_4 ) (* 1 s_4 z ) (* 1 s_5 ) (* 1 s_6 x ) (* 1 s_7 x y ) (* 1 s_8 x ) (* 1 s_8 x z ) (* 1 s_9 x x ) ) 0) )))
(assert (forall ((x Real) (i Real) (y Real) (z Real) ) (=> (and (>= (+ (* 1 x ) (* (- 1) z ) ) 0) (>= (+ (* (- 1) 1) (* (- 1) x ) (* 1 y ) ) 0) (>= (+ (* 1023 1) (* (- 1) z ) ) 0) (>= (+ (* 1023 1) (* (- 1) y ) ) 0) (>= (+ (* 1023 1) (* (- 1) x ) ) 0) (>= (+ (* 1024 1) (* 1 x ) ) 0) (>= (+ (* 1024 1) (* 1 i ) ) 0) (>= (+ (* 1024 1) (* 1 z ) ) 0) (>= (+ (* 1024 1) (* 1 y ) ) 0) (>= (+ (* 1 i s_1 ) (* 1 i s_2 x ) (* 1 i s_3 y ) (* 1 i s_4 z ) (* 1 i i s_5 ) (* 1 s_0 ) (* 1 s_10 y ) (* 1 s_11 y z ) (* 1 s_12 y y ) (* 1 s_13 z ) (* 1 s_14 z z ) (* 1 s_6 x ) (* 1 s_7 x y ) (* 1 s_8 x z ) (* 1 s_9 x x ) ) 0) ) (>= (+ (* 1 c_0 ) (* 1 c_1 ) (* 1 c_1 i ) (* 1 c_10 y ) (* 1 c_11 y ) (* 1 c_11 y z ) (* 1 c_12 y y ) (* 1 c_13 ) (* 1 c_13 z ) (* 1 c_14 ) (* 2 c_14 z ) (* 1 c_14 z z ) (* 1 c_2 i x ) (* 1 c_2 x ) (* 1 c_3 i y ) (* 1 c_3 y ) (* 1 c_4 ) (* 1 c_4 i ) (* 1 c_4 i z ) (* 1 c_4 z ) (* 1 c_5 ) (* 2 c_5 i ) (* 1 c_5 i i ) (* 1 c_6 x ) (* 1 c_7 x y ) (* 1 c_8 x ) (* 1 c_8 x z ) (* 1 c_9 x x ) ) 0) )))
(assert (forall ((x Real) (i Real) (y Real) (z Real) ) (=> (and (>= (+ (* 1 x ) (* (- 1) z ) ) 0) (>= (+ (* (- 1) 1) (* (- 1) x ) (* 1 y ) ) 0) (>= (+ (* 1023 1) (* (- 1) z ) ) 0) (>= (+ (* 1023 1) (* (- 1) y ) ) 0) (>= (+ (* 1023 1) (* (- 1) x ) ) 0) (>= (+ (* 1024 1) (* 1 x ) ) 0) (>= (+ (* 1024 1) (* 1 i ) ) 0) (>= (+ (* 1024 1) (* 1 z ) ) 0) (>= (+ (* 1024 1) (* 1 y ) ) 0) (>= (+ (* 1 i s_1 ) (* 1 i s_2 x ) (* 1 i s_3 y ) (* 1 i s_4 z ) (* 1 i i s_5 ) (* 1 s_0 ) (* 1 s_10 y ) (* 1 s_11 y z ) (* 1 s_12 y y ) (* 1 s_13 z ) (* 1 s_14 z z ) (* 1 s_6 x ) (* 1 s_7 x y ) (* 1 s_8 x z ) (* 1 s_9 x x ) ) 0) ) (>= (+ (* (- 1) 1) (* (- 1) c_1 ) (* (- 1) c_11 y ) (* (- 1) c_13 ) (* (- 1) c_14 ) (* (- 2) c_14 z ) (* (- 1) c_2 x ) (* (- 1) c_3 y ) (* (- 1) c_4 ) (* (- 1) c_4 i ) (* (- 1) c_4 z ) (* (- 1) c_5 ) (* (- 2) c_5 i ) (* (- 1) c_8 x ) ) 0) )))
(assert (forall ((x Real) (i Real) (y Real) (z Real) ) (=> (and (>= (+ (* 1 x ) (* (- 1) y ) ) 0) (>= (+ (* 1023 1) (* (- 1) z ) ) 0) (>= (+ (* 1023 1) (* (- 1) y ) ) 0) (>= (+ (* 1023 1) (* (- 1) x ) ) 0) (>= (+ (* 1024 1) (* 1 x ) ) 0) (>= (+ (* 1024 1) (* 1 i ) ) 0) (>= (+ (* 1024 1) (* 1 z ) ) 0) (>= (+ (* 1024 1) (* 1 y ) ) 0) (>= (+ (* 1 i s_1 ) (* 1 i s_2 x ) (* 1 i s_3 y ) (* 1 i s_4 z ) (* 1 i i s_5 ) (* 1 s_0 ) (* 1 s_10 y ) (* 1 s_11 y z ) (* 1 s_12 y y ) (* 1 s_13 z ) (* 1 s_14 z z ) (* 1 s_6 x ) (* 1 s_7 x y ) (* 1 s_8 x z ) (* 1 s_9 x x ) ) 0) ) (>= (+ (* 1 i s_16 ) (* 1 i s_17 x ) (* 1 i s_18 y ) (* 1 i s_19 z ) (* 1 i i s_20 ) (* 1 s_15 ) (* 1 s_21 x ) (* 1 s_22 x y ) (* 1 s_23 x z ) (* 1 s_24 x x ) (* 1 s_25 y ) (* 1 s_26 y z ) (* 1 s_27 y y ) (* 1 s_28 z ) (* 1 s_29 z z ) ) 0) )))
(assert (forall ((x Real) (i Real) (y Real) (z Real) ) (=> (and (>= (+ (* 1 x ) (* (- 1) y ) ) 0) (>= (+ (* 1023 1) (* (- 1) z ) ) 0) (>= (+ (* 1023 1) (* (- 1) y ) ) 0) (>= (+ (* 1023 1) (* (- 1) x ) ) 0) (>= (+ (* 1024 1) (* 1 x ) ) 0) (>= (+ (* 1024 1) (* 1 i ) ) 0) (>= (+ (* 1024 1) (* 1 z ) ) 0) (>= (+ (* 1024 1) (* 1 y ) ) 0) (>= (+ (* 1 i s_1 ) (* 1 i s_2 x ) (* 1 i s_3 y ) (* 1 i s_4 z ) (* 1 i i s_5 ) (* 1 s_0 ) (* 1 s_10 y ) (* 1 s_11 y z ) (* 1 s_12 y y ) (* 1 s_13 z ) (* 1 s_14 z z ) (* 1 s_6 x ) (* 1 s_7 x y ) (* 1 s_8 x z ) (* 1 s_9 x x ) ) 0) ) (>= (+ (* 1 c_15 ) (* 1 c_16 i ) (* 1 c_17 i x ) (* 1 c_18 i y ) (* 1 c_19 i z ) (* 1 c_20 i i ) (* 1 c_21 x ) (* 1 c_22 x y ) (* 1 c_23 x z ) (* 1 c_24 x x ) (* 1 c_25 y ) (* 1 c_26 y z ) (* 1 c_27 y y ) (* 1 c_28 z ) (* 1 c_29 z z ) ) 0) )))

(check-sat)
(get-model)
